\ Model Cl_30_Ins_6.lp
\ LP format - for model browsing. Use MPS format to capture full model detail.
Maximize
 
Subject To
 obj1: y[0] = 0
 obj2: y[1] = 0
 obj1_Exp: - y[0] + 98 x[0] + 98 x[1] + 96 x[2] + 96 x[3] + 89 x[4]
   + 86 x[5] + 76 x[6] + 76 x[7] + 74 x[8] + 72 x[9] + 72 x[10] + 64 x[11]
   + 60 x[12] + 59 x[13] + 59 x[14] + 53 x[15] + 46 x[16] + 44 x[17]
   + 44 x[18] + 42 x[19] + 38 x[20] + 36 x[21] + 34 x[22] + 32 x[23]
   + 25 x[24] + 15 x[25] + 11 x[26] + 9 x[27] + 6 x[28] + 4 x[29] = 0
 obj2_Exp: - y[1] + 78 x[0] + 98 x[1] + 12 x[2] + 43 x[3] + 10 x[4]
   + 57 x[5] + 70 x[6] + 78 x[7] + 83 x[8] + 2 x[9] + 45 x[10] + 28 x[11]
   + 49 x[12] + 36 x[13] + 5 x[14] + 38 x[15] + 3 x[16] + 88 x[17]
   + 73 x[18] + 18 x[19] + 93 x[20] + 77 x[21] + 83 x[22] + 41 x[23]
   + 7 x[24] + 81 x[25] + 31 x[26] + 17 x[27] + 83 x[28] + 6 x[29] = 0
 Budget: 108 x[0] + 108 x[1] + 106 x[2] + 106 x[3] + 99 x[4] + 96 x[5]
   + 86 x[6] + 86 x[7] + 84 x[8] + 82 x[9] + 82 x[10] + 74 x[11] + 70 x[12]
   + 69 x[13] + 69 x[14] + 63 x[15] + 56 x[16] + 54 x[17] + 54 x[18]
   + 52 x[19] + 48 x[20] + 46 x[21] + 44 x[22] + 42 x[23] + 35 x[24]
   + 25 x[25] + 21 x[26] + 19 x[27] + 16 x[28] + 14 x[29] <= 635
Bounds
Binaries
 x[0] x[1] x[2] x[3] x[4] x[5] x[6] x[7] x[8] x[9] x[10] x[11] x[12] x[13]
 x[14] x[15] x[16] x[17] x[18] x[19] x[20] x[21] x[22] x[23] x[24] x[25]
 x[26] x[27] x[28] x[29]
Generals
 y[0] y[1]
End
